n = 60;
 
height = [1, 3, 3, 5, 2, 4, 3, 4, 2, 1, 
          2, 4, 3, 1, 1, 4, 2, 5, 2, 4,
          5, 6, 3, 2, 1, 5, 2, 3, 4, 3,
   7, 5, 3, 5, 4, 4, 1, 2, 3, 4,
   6, 4, 3, 5, 2, 5, 3, 4, 5, 2,
   2, 3, 6, 4, 5, 2, 3, 4, 3, 2];

cols = 20;
delta = 1;
